
Log started (V12.8.0.0) Sat Dec 22 16:27:02 2018


Problem 'MP_BC.lp' read.
Read time = 0.22 sec. (14.69 ticks)
Found incumbent of value 0.000000 after 0.00 sec. (3.08 ticks)
Tried aggregator 2 times.
MIP Presolve eliminated 99109 rows and 19624 columns.
Aggregator did 100 substitutions.
Reduced MIP has 894 rows, 993 columns, and 5434 nonzeros.
Reduced MIP has 100 binaries, 0 generals, 0 SOSs, and 0 indicators.
Presolve time = 0.30 sec. (133.74 ticks)
Probing time = 0.00 sec. (0.30 ticks)
Tried aggregator 1 time.
Reduced MIP has 894 rows, 993 columns, and 5434 nonzeros.
Reduced MIP has 993 binaries, 0 generals, 0 SOSs, and 0 indicators.
Presolve time = 0.00 sec. (2.77 ticks)
Probing time = 0.00 sec. (0.30 ticks)
MIP emphasis: balance optimality and feasibility.
MIP search method: dynamic search.
Parallel mode: deterministic, using up to 12 threads.
Root relaxation solution time = 0.04 sec. (29.32 ticks)

        Nodes                                         Cuts/
   Node  Left     Objective  IInf  Best Integer    Best Bound    ItCnt     Gap

*     0+    0                            0.0000 -4838704.0000              --- 
*     0+    0                     -2593647.0000 -4838704.0000            86.56%
*     0+    0                     -2781236.0000 -4838704.0000            73.98%
      0     0 -3489152.7500   246 -2781236.0000 -3489152.7500     1068   25.45%
*     0+    0                     -3456535.0000 -3489152.7500             0.94%
*     0+    0                     -3471310.0000 -3489152.7500             0.51%
      0     0 -3485515.3333   255 -3471310.0000      Cuts: 14     1108    0.41%
*     0     0      integral     0 -3484664.0000      Cuts: 17     1123    0.00%
      0     0        cutoff       -3484664.0000 -3484664.0000     1123    0.00%
Elapsed time = 0.64 sec. (248.31 ticks, tree = 0.01 MB, solutions = 6)

Zero-half cuts applied:  23
Lift and project cuts applied:  1
Gomory fractional cuts applied:  3

Root node processing (before b&c):
  Real time             =    0.65 sec. (255.64 ticks)
Parallel b&c, 12 threads:
  Real time             =    0.00 sec. (0.00 ticks)
  Sync time (average)   =    0.00 sec.
  Wait time (average)   =    0.00 sec.
                          ------------
Total (root+branch&cut) =    0.65 sec. (255.64 ticks)

Solution pool: 6 solutions saved.

MIP - Integer optimal solution:  Objective = -3.4846640000e+06
Solution time =    0.65 sec.  Iterations = 1123  Nodes = 0
Deterministic time = 255.92 ticks  (390.99 ticks/sec)


Log started (V12.8.0.0) Sat Dec 22 16:50:05 2018


Problem 'PD.lp' read.
Read time = 0.21 sec. (14.12 ticks)
Parallel mode: deterministic, using up to 12 threads for concurrent optimization.
Tried aggregator 1 time.
LP Presolve eliminated 19625 rows and 19624 columns.
Aggregator did 100 substitutions.
Reduced LP has 80378 rows, 80477 columns, and 385920 nonzeros.
Presolve time = 0.28 sec. (123.37 ticks)

Iteration log . . .
Iteration:     1   Dual objective     =      -4742478.000000
Iteration:   581   Dual objective     =      -4712680.000000
Iteration:  1607   Dual objective     =      -4662210.000000
Iteration:  1858   Dual objective     =      -4650863.000000
Iteration:  2529   Dual objective     =      -4621996.000000
Iteration:  3284   Dual objective     =      -4594927.000000
Iteration:  3878   Dual objective     =      -4573870.000000
Iteration:  4185   Dual objective     =      -4564087.000000
Iteration:  4739   Dual objective     =      -4545747.000000
Iteration:  5292   Dual objective     =      -4528483.000000
Iteration:  5657   Dual objective     =      -4518790.000000
Iteration:  5957   Dual objective     =      -4510619.000000
Iteration:  6487   Dual objective     =      -4495341.000000
Iteration:  6855   Dual objective     =      -4485376.000000
Iteration:  7551   Dual objective     =      -4466258.000000
Iteration:  7853   Dual objective     =      -4458164.000000
Iteration:  8331   Dual objective     =      -4446836.000000
Iteration:  8896   Dual objective     =      -4432445.000000
Iteration:  9107   Dual objective     =      -4427320.000000
Iteration:  9592   Dual objective     =      -4414938.000000
Iteration: 10376   Dual objective     =      -4394880.000000
Iteration: 10496   Dual objective     =      -4391975.000000
Iteration: 10980   Dual objective     =      -4382842.000000
Iteration: 11285   Dual objective     =      -4377444.000000
Iteration: 12000   Dual objective     =      -4365116.000000
Iteration: 12526   Dual objective     =      -4355751.000000
Iteration: 13013   Dual objective     =      -4346462.000000
Iteration: 13385   Dual objective     =      -4339561.000000
Iteration: 13904   Dual objective     =      -4332898.000000
Iteration: 14347   Dual objective     =      -4324761.000000
Iteration: 15211   Dual objective     =      -4309172.000000
Iteration: 15278   Dual objective     =      -4307971.000000
Iteration: 15948   Dual objective     =      -4296504.000000
Iteration: 16050   Dual objective     =      -4294625.000000
Iteration: 16627   Dual objective     =      -4285216.000000
Iteration: 17151   Dual objective     =      -4277499.000000
Iteration: 17720   Dual objective     =      -4268662.000000
Iteration: 18135   Dual objective     =      -4262828.500000
Iteration: 18672   Dual objective     =      -4255095.000000
Iteration: 19261   Dual objective     =      -4245802.000000
Iteration: 19662   Dual objective     =      -4240142.500000

Barrier solved model.


Dual simplex - Optimal:  Objective = -3.4891527500e+06
Solution time =   26.79 sec.  Iterations = 0 (0)
Deterministic time = 5655.26 ticks  (211.08 ticks/sec)

